NAME : ../File/prFile/tspFile/tsp_file33.tsp.443.tour
COMMENT : Length = 443
COMMENT : Found by LKH-3 [Keld Helsgaun] Wed Jun 14 16:16:50 2023
TYPE : TOUR
DIMENSION : 30
TOUR_SECTION
1
13
16
27
30
7
29
9
25
4
5
3
22
12
21
11
10
8
23
17
2
26
28
6
14
18
15
24
20
19
-1
EOF
